p cnf 100 1260
w 1 0.9 
-100 -01 0
-100 -02 0
-100 -10 0
-100 -11 0
-100 -20 0
-100 -22 0
-01 -02 0
-01 -03 0
-01 -100 0
-01 -11 0
-01 -12 0
-01 -10 0
-01 -21 0
-01 -23 0
-02 -03 0
-02 -04 0
-02 -01 0
-02 -100 0
-02 -12 0
-02 -13 0
-02 -11 0
-02 -22 0
-02 -24 0
-02 -20 0
-03 -04 0
-03 -05 0
-03 -02 0
-03 -01 0
-03 -13 0
-03 -14 0
-03 -12 0
-03 -23 0
-03 -25 0
-03 -21 0
-04 -05 0
-04 -06 0
-04 -03 0
-04 -02 0
-04 -14 0
-04 -15 0
-04 -13 0
-04 -24 0
-04 -26 0
-04 -22 0
-05 -06 0
-05 -07 0
-05 -04 0
-05 -03 0
-05 -15 0
-05 -16 0
-05 -14 0
-05 -25 0
-05 -27 0
-05 -23 0
-06 -07 0
-06 -08 0
-06 -05 0
-06 -04 0
-06 -16 0
-06 -17 0
-06 -15 0
-06 -26 0
-06 -28 0
-06 -24 0
-07 -08 0
-07 -09 0
-07 -06 0
-07 -05 0
-07 -17 0
-07 -18 0
-07 -16 0
-07 -27 0
-07 -29 0
-07 -25 0
-08 -09 0
-08 -07 0
-08 -06 0
-08 -18 0
-08 -19 0
-08 -17 0
-08 -28 0
-08 -26 0
-09 -08 0
-09 -07 0
-09 -19 0
-09 -18 0
-09 -29 0
-09 -27 0
-10 -11 0
-10 -12 0
-10 -20 0
-10 -21 0
-10 -30 0
-10 -32 0
-10 -100 0
-10 -01 0
-11 -12 0
-11 -13 0
-11 -10 0
-11 -21 0
-11 -22 0
-11 -20 0
-11 -31 0
-11 -33 0
-11 -01 0
-11 -02 0
-11 -100 0
-12 -13 0
-12 -14 0
-12 -11 0
-12 -10 0
-12 -22 0
-12 -23 0
-12 -21 0
-12 -32 0
-12 -34 0
-12 -30 0
-12 -02 0
-12 -03 0
-12 -01 0
-13 -14 0
-13 -15 0
-13 -12 0
-13 -11 0
-13 -23 0
-13 -24 0
-13 -22 0
-13 -33 0
-13 -35 0
-13 -31 0
-13 -03 0
-13 -04 0
-13 -02 0
-14 -15 0
-14 -16 0
-14 -13 0
-14 -12 0
-14 -24 0
-14 -25 0
-14 -23 0
-14 -34 0
-14 -36 0
-14 -32 0
-14 -04 0
-14 -05 0
-14 -03 0
-15 -16 0
-15 -17 0
-15 -14 0
-15 -13 0
-15 -25 0
-15 -26 0
-15 -24 0
-15 -35 0
-15 -37 0
-15 -33 0
-15 -05 0
-15 -06 0
-15 -04 0
-16 -17 0
-16 -18 0
-16 -15 0
-16 -14 0
-16 -26 0
-16 -27 0
-16 -25 0
-16 -36 0
-16 -38 0
-16 -34 0
-16 -06 0
-16 -07 0
-16 -05 0
-17 -18 0
-17 -19 0
-17 -16 0
-17 -15 0
-17 -27 0
-17 -28 0
-17 -26 0
-17 -37 0
-17 -39 0
-17 -35 0
-17 -07 0
-17 -08 0
-17 -06 0
-18 -19 0
-18 -17 0
-18 -16 0
-18 -28 0
-18 -29 0
-18 -27 0
-18 -38 0
-18 -36 0
-18 -08 0
-18 -09 0
-18 -07 0
-19 -18 0
-19 -17 0
-19 -29 0
-19 -28 0
-19 -39 0
-19 -37 0
-19 -09 0
-19 -08 0
-20 -21 0
-20 -22 0
-20 -30 0
-20 -31 0
-20 -40 0
-20 -42 0
-20 -10 0
-20 -11 0
-20 -100 0
-20 -02 0
-21 -22 0
-21 -23 0
-21 -20 0
-21 -31 0
-21 -32 0
-21 -30 0
-21 -41 0
-21 -43 0
-21 -11 0
-21 -12 0
-21 -10 0
-21 -01 0
-21 -03 0
-22 -23 0
-22 -24 0
-22 -21 0
-22 -20 0
-22 -32 0
-22 -33 0
-22 -31 0
-22 -42 0
-22 -44 0
-22 -40 0
-22 -12 0
-22 -13 0
-22 -11 0
-22 -02 0
-22 -04 0
-22 -100 0
-23 -24 0
-23 -25 0
-23 -22 0
-23 -21 0
-23 -33 0
-23 -34 0
-23 -32 0
-23 -43 0
-23 -45 0
-23 -41 0
-23 -13 0
-23 -14 0
-23 -12 0
-23 -03 0
-23 -05 0
-23 -01 0
-24 -25 0
-24 -26 0
-24 -23 0
-24 -22 0
-24 -34 0
-24 -35 0
-24 -33 0
-24 -44 0
-24 -46 0
-24 -42 0
-24 -14 0
-24 -15 0
-24 -13 0
-24 -04 0
-24 -06 0
-24 -02 0
-25 -26 0
-25 -27 0
-25 -24 0
-25 -23 0
-25 -35 0
-25 -36 0
-25 -34 0
-25 -45 0
-25 -47 0
-25 -43 0
-25 -15 0
-25 -16 0
-25 -14 0
-25 -05 0
-25 -07 0
-25 -03 0
-26 -27 0
-26 -28 0
-26 -25 0
-26 -24 0
-26 -36 0
-26 -37 0
-26 -35 0
-26 -46 0
-26 -48 0
-26 -44 0
-26 -16 0
-26 -17 0
-26 -15 0
-26 -06 0
-26 -08 0
-26 -04 0
-27 -28 0
-27 -29 0
-27 -26 0
-27 -25 0
-27 -37 0
-27 -38 0
-27 -36 0
-27 -47 0
-27 -49 0
-27 -45 0
-27 -17 0
-27 -18 0
-27 -16 0
-27 -07 0
-27 -09 0
-27 -05 0
-28 -29 0
-28 -27 0
-28 -26 0
-28 -38 0
-28 -39 0
-28 -37 0
-28 -48 0
-28 -46 0
-28 -18 0
-28 -19 0
-28 -17 0
-28 -08 0
-28 -06 0
-29 -28 0
-29 -27 0
-29 -39 0
-29 -38 0
-29 -49 0
-29 -47 0
-29 -19 0
-29 -18 0
-29 -09 0
-29 -07 0
-30 -31 0
-30 -32 0
-30 -40 0
-30 -41 0
-30 -50 0
-30 -52 0
-30 -20 0
-30 -21 0
-30 -10 0
-30 -12 0
-31 -32 0
-31 -33 0
-31 -30 0
-31 -41 0
-31 -42 0
-31 -40 0
-31 -51 0
-31 -53 0
-31 -21 0
-31 -22 0
-31 -20 0
-31 -11 0
-31 -13 0
-32 -33 0
-32 -34 0
-32 -31 0
-32 -30 0
-32 -42 0
-32 -43 0
-32 -41 0
-32 -52 0
-32 -54 0
-32 -50 0
-32 -22 0
-32 -23 0
-32 -21 0
-32 -12 0
-32 -14 0
-32 -10 0
-33 -34 0
-33 -35 0
-33 -32 0
-33 -31 0
-33 -43 0
-33 -44 0
-33 -42 0
-33 -53 0
-33 -55 0
-33 -51 0
-33 -23 0
-33 -24 0
-33 -22 0
-33 -13 0
-33 -15 0
-33 -11 0
-34 -35 0
-34 -36 0
-34 -33 0
-34 -32 0
-34 -44 0
-34 -45 0
-34 -43 0
-34 -54 0
-34 -56 0
-34 -52 0
-34 -24 0
-34 -25 0
-34 -23 0
-34 -14 0
-34 -16 0
-34 -12 0
-35 -36 0
-35 -37 0
-35 -34 0
-35 -33 0
-35 -45 0
-35 -46 0
-35 -44 0
-35 -55 0
-35 -57 0
-35 -53 0
-35 -25 0
-35 -26 0
-35 -24 0
-35 -15 0
-35 -17 0
-35 -13 0
-36 -37 0
-36 -38 0
-36 -35 0
-36 -34 0
-36 -46 0
-36 -47 0
-36 -45 0
-36 -56 0
-36 -58 0
-36 -54 0
-36 -26 0
-36 -27 0
-36 -25 0
-36 -16 0
-36 -18 0
-36 -14 0
-37 -38 0
-37 -39 0
-37 -36 0
-37 -35 0
-37 -47 0
-37 -48 0
-37 -46 0
-37 -57 0
-37 -59 0
-37 -55 0
-37 -27 0
-37 -28 0
-37 -26 0
-37 -17 0
-37 -19 0
-37 -15 0
-38 -39 0
-38 -37 0
-38 -36 0
-38 -48 0
-38 -49 0
-38 -47 0
-38 -58 0
-38 -56 0
-38 -28 0
-38 -29 0
-38 -27 0
-38 -18 0
-38 -16 0
-39 -38 0
-39 -37 0
-39 -49 0
-39 -48 0
-39 -59 0
-39 -57 0
-39 -29 0
-39 -28 0
-39 -19 0
-39 -17 0
-40 -41 0
-40 -42 0
-40 -50 0
-40 -51 0
-40 -60 0
-40 -62 0
-40 -30 0
-40 -31 0
-40 -20 0
-40 -22 0
-41 -42 0
-41 -43 0
-41 -40 0
-41 -51 0
-41 -52 0
-41 -50 0
-41 -61 0
-41 -63 0
-41 -31 0
-41 -32 0
-41 -30 0
-41 -21 0
-41 -23 0
-42 -43 0
-42 -44 0
-42 -41 0
-42 -40 0
-42 -52 0
-42 -53 0
-42 -51 0
-42 -62 0
-42 -64 0
-42 -60 0
-42 -32 0
-42 -33 0
-42 -31 0
-42 -22 0
-42 -24 0
-42 -20 0
-43 -44 0
-43 -45 0
-43 -42 0
-43 -41 0
-43 -53 0
-43 -54 0
-43 -52 0
-43 -63 0
-43 -65 0
-43 -61 0
-43 -33 0
-43 -34 0
-43 -32 0
-43 -23 0
-43 -25 0
-43 -21 0
-44 -45 0
-44 -46 0
-44 -43 0
-44 -42 0
-44 -54 0
-44 -55 0
-44 -53 0
-44 -64 0
-44 -66 0
-44 -62 0
-44 -34 0
-44 -35 0
-44 -33 0
-44 -24 0
-44 -26 0
-44 -22 0
-45 -46 0
-45 -47 0
-45 -44 0
-45 -43 0
-45 -55 0
-45 -56 0
-45 -54 0
-45 -65 0
-45 -67 0
-45 -63 0
-45 -35 0
-45 -36 0
-45 -34 0
-45 -25 0
-45 -27 0
-45 -23 0
-46 -47 0
-46 -48 0
-46 -45 0
-46 -44 0
-46 -56 0
-46 -57 0
-46 -55 0
-46 -66 0
-46 -68 0
-46 -64 0
-46 -36 0
-46 -37 0
-46 -35 0
-46 -26 0
-46 -28 0
-46 -24 0
-47 -48 0
-47 -49 0
-47 -46 0
-47 -45 0
-47 -57 0
-47 -58 0
-47 -56 0
-47 -67 0
-47 -69 0
-47 -65 0
-47 -37 0
-47 -38 0
-47 -36 0
-47 -27 0
-47 -29 0
-47 -25 0
-48 -49 0
-48 -47 0
-48 -46 0
-48 -58 0
-48 -59 0
-48 -57 0
-48 -68 0
-48 -66 0
-48 -38 0
-48 -39 0
-48 -37 0
-48 -28 0
-48 -26 0
-49 -48 0
-49 -47 0
-49 -59 0
-49 -58 0
-49 -69 0
-49 -67 0
-49 -39 0
-49 -38 0
-49 -29 0
-49 -27 0
-50 -51 0
-50 -52 0
-50 -60 0
-50 -61 0
-50 -70 0
-50 -72 0
-50 -40 0
-50 -41 0
-50 -30 0
-50 -32 0
-51 -52 0
-51 -53 0
-51 -50 0
-51 -61 0
-51 -62 0
-51 -60 0
-51 -71 0
-51 -73 0
-51 -41 0
-51 -42 0
-51 -40 0
-51 -31 0
-51 -33 0
-52 -53 0
-52 -54 0
-52 -51 0
-52 -50 0
-52 -62 0
-52 -63 0
-52 -61 0
-52 -72 0
-52 -74 0
-52 -70 0
-52 -42 0
-52 -43 0
-52 -41 0
-52 -32 0
-52 -34 0
-52 -30 0
-53 -54 0
-53 -55 0
-53 -52 0
-53 -51 0
-53 -63 0
-53 -64 0
-53 -62 0
-53 -73 0
-53 -75 0
-53 -71 0
-53 -43 0
-53 -44 0
-53 -42 0
-53 -33 0
-53 -35 0
-53 -31 0
-54 -55 0
-54 -56 0
-54 -53 0
-54 -52 0
-54 -64 0
-54 -65 0
-54 -63 0
-54 -74 0
-54 -76 0
-54 -72 0
-54 -44 0
-54 -45 0
-54 -43 0
-54 -34 0
-54 -36 0
-54 -32 0
-55 -56 0
-55 -57 0
-55 -54 0
-55 -53 0
-55 -65 0
-55 -66 0
-55 -64 0
-55 -75 0
-55 -77 0
-55 -73 0
-55 -45 0
-55 -46 0
-55 -44 0
-55 -35 0
-55 -37 0
-55 -33 0
-56 -57 0
-56 -58 0
-56 -55 0
-56 -54 0
-56 -66 0
-56 -67 0
-56 -65 0
-56 -76 0
-56 -78 0
-56 -74 0
-56 -46 0
-56 -47 0
-56 -45 0
-56 -36 0
-56 -38 0
-56 -34 0
-57 -58 0
-57 -59 0
-57 -56 0
-57 -55 0
-57 -67 0
-57 -68 0
-57 -66 0
-57 -77 0
-57 -79 0
-57 -75 0
-57 -47 0
-57 -48 0
-57 -46 0
-57 -37 0
-57 -39 0
-57 -35 0
-58 -59 0
-58 -57 0
-58 -56 0
-58 -68 0
-58 -69 0
-58 -67 0
-58 -78 0
-58 -76 0
-58 -48 0
-58 -49 0
-58 -47 0
-58 -38 0
-58 -36 0
-59 -58 0
-59 -57 0
-59 -69 0
-59 -68 0
-59 -79 0
-59 -77 0
-59 -49 0
-59 -48 0
-59 -39 0
-59 -37 0
-60 -61 0
-60 -62 0
-60 -70 0
-60 -71 0
-60 -80 0
-60 -82 0
-60 -50 0
-60 -51 0
-60 -40 0
-60 -42 0
-61 -62 0
-61 -63 0
-61 -60 0
-61 -71 0
-61 -72 0
-61 -70 0
-61 -81 0
-61 -83 0
-61 -51 0
-61 -52 0
-61 -50 0
-61 -41 0
-61 -43 0
-62 -63 0
-62 -64 0
-62 -61 0
-62 -60 0
-62 -72 0
-62 -73 0
-62 -71 0
-62 -82 0
-62 -84 0
-62 -80 0
-62 -52 0
-62 -53 0
-62 -51 0
-62 -42 0
-62 -44 0
-62 -40 0
-63 -64 0
-63 -65 0
-63 -62 0
-63 -61 0
-63 -73 0
-63 -74 0
-63 -72 0
-63 -83 0
-63 -85 0
-63 -81 0
-63 -53 0
-63 -54 0
-63 -52 0
-63 -43 0
-63 -45 0
-63 -41 0
-64 -65 0
-64 -66 0
-64 -63 0
-64 -62 0
-64 -74 0
-64 -75 0
-64 -73 0
-64 -84 0
-64 -86 0
-64 -82 0
-64 -54 0
-64 -55 0
-64 -53 0
-64 -44 0
-64 -46 0
-64 -42 0
-65 -66 0
-65 -67 0
-65 -64 0
-65 -63 0
-65 -75 0
-65 -76 0
-65 -74 0
-65 -85 0
-65 -87 0
-65 -83 0
-65 -55 0
-65 -56 0
-65 -54 0
-65 -45 0
-65 -47 0
-65 -43 0
-66 -67 0
-66 -68 0
-66 -65 0
-66 -64 0
-66 -76 0
-66 -77 0
-66 -75 0
-66 -86 0
-66 -88 0
-66 -84 0
-66 -56 0
-66 -57 0
-66 -55 0
-66 -46 0
-66 -48 0
-66 -44 0
-67 -68 0
-67 -69 0
-67 -66 0
-67 -65 0
-67 -77 0
-67 -78 0
-67 -76 0
-67 -87 0
-67 -89 0
-67 -85 0
-67 -57 0
-67 -58 0
-67 -56 0
-67 -47 0
-67 -49 0
-67 -45 0
-68 -69 0
-68 -67 0
-68 -66 0
-68 -78 0
-68 -79 0
-68 -77 0
-68 -88 0
-68 -86 0
-68 -58 0
-68 -59 0
-68 -57 0
-68 -48 0
-68 -46 0
-69 -68 0
-69 -67 0
-69 -79 0
-69 -78 0
-69 -89 0
-69 -87 0
-69 -59 0
-69 -58 0
-69 -49 0
-69 -47 0
-70 -71 0
-70 -72 0
-70 -80 0
-70 -81 0
-70 -90 0
-70 -92 0
-70 -60 0
-70 -61 0
-70 -50 0
-70 -52 0
-71 -72 0
-71 -73 0
-71 -70 0
-71 -81 0
-71 -82 0
-71 -80 0
-71 -91 0
-71 -93 0
-71 -61 0
-71 -62 0
-71 -60 0
-71 -51 0
-71 -53 0
-72 -73 0
-72 -74 0
-72 -71 0
-72 -70 0
-72 -82 0
-72 -83 0
-72 -81 0
-72 -92 0
-72 -94 0
-72 -90 0
-72 -62 0
-72 -63 0
-72 -61 0
-72 -52 0
-72 -54 0
-72 -50 0
-73 -74 0
-73 -75 0
-73 -72 0
-73 -71 0
-73 -83 0
-73 -84 0
-73 -82 0
-73 -93 0
-73 -95 0
-73 -91 0
-73 -63 0
-73 -64 0
-73 -62 0
-73 -53 0
-73 -55 0
-73 -51 0
-74 -75 0
-74 -76 0
-74 -73 0
-74 -72 0
-74 -84 0
-74 -85 0
-74 -83 0
-74 -94 0
-74 -96 0
-74 -92 0
-74 -64 0
-74 -65 0
-74 -63 0
-74 -54 0
-74 -56 0
-74 -52 0
-75 -76 0
-75 -77 0
-75 -74 0
-75 -73 0
-75 -85 0
-75 -86 0
-75 -84 0
-75 -95 0
-75 -97 0
-75 -93 0
-75 -65 0
-75 -66 0
-75 -64 0
-75 -55 0
-75 -57 0
-75 -53 0
-76 -77 0
-76 -78 0
-76 -75 0
-76 -74 0
-76 -86 0
-76 -87 0
-76 -85 0
-76 -96 0
-76 -98 0
-76 -94 0
-76 -66 0
-76 -67 0
-76 -65 0
-76 -56 0
-76 -58 0
-76 -54 0
-77 -78 0
-77 -79 0
-77 -76 0
-77 -75 0
-77 -87 0
-77 -88 0
-77 -86 0
-77 -97 0
-77 -99 0
-77 -95 0
-77 -67 0
-77 -68 0
-77 -66 0
-77 -57 0
-77 -59 0
-77 -55 0
-78 -79 0
-78 -77 0
-78 -76 0
-78 -88 0
-78 -89 0
-78 -87 0
-78 -98 0
-78 -96 0
-78 -68 0
-78 -69 0
-78 -67 0
-78 -58 0
-78 -56 0
-79 -78 0
-79 -77 0
-79 -89 0
-79 -88 0
-79 -99 0
-79 -97 0
-79 -69 0
-79 -68 0
-79 -59 0
-79 -57 0
-80 -81 0
-80 -82 0
-80 -90 0
-80 -91 0
-80 -70 0
-80 -71 0
-80 -60 0
-80 -62 0
-81 -82 0
-81 -83 0
-81 -80 0
-81 -91 0
-81 -92 0
-81 -90 0
-81 -71 0
-81 -72 0
-81 -70 0
-81 -61 0
-81 -63 0
-82 -83 0
-82 -84 0
-82 -81 0
-82 -80 0
-82 -92 0
-82 -93 0
-82 -91 0
-82 -72 0
-82 -73 0
-82 -71 0
-82 -62 0
-82 -64 0
-82 -60 0
-83 -84 0
-83 -85 0
-83 -82 0
-83 -81 0
-83 -93 0
-83 -94 0
-83 -92 0
-83 -73 0
-83 -74 0
-83 -72 0
-83 -63 0
-83 -65 0
-83 -61 0
-84 -85 0
-84 -86 0
-84 -83 0
-84 -82 0
-84 -94 0
-84 -95 0
-84 -93 0
-84 -74 0
-84 -75 0
-84 -73 0
-84 -64 0
-84 -66 0
-84 -62 0
-85 -86 0
-85 -87 0
-85 -84 0
-85 -83 0
-85 -95 0
-85 -96 0
-85 -94 0
-85 -75 0
-85 -76 0
-85 -74 0
-85 -65 0
-85 -67 0
-85 -63 0
-86 -87 0
-86 -88 0
-86 -85 0
-86 -84 0
-86 -96 0
-86 -97 0
-86 -95 0
-86 -76 0
-86 -77 0
-86 -75 0
-86 -66 0
-86 -68 0
-86 -64 0
-87 -88 0
-87 -89 0
-87 -86 0
-87 -85 0
-87 -97 0
-87 -98 0
-87 -96 0
-87 -77 0
-87 -78 0
-87 -76 0
-87 -67 0
-87 -69 0
-87 -65 0
-88 -89 0
-88 -87 0
-88 -86 0
-88 -98 0
-88 -99 0
-88 -97 0
-88 -78 0
-88 -79 0
-88 -77 0
-88 -68 0
-88 -66 0
-89 -88 0
-89 -87 0
-89 -99 0
-89 -98 0
-89 -79 0
-89 -78 0
-89 -69 0
-89 -67 0
-90 -91 0
-90 -92 0
-90 -80 0
-90 -81 0
-90 -70 0
-90 -72 0
-91 -92 0
-91 -93 0
-91 -90 0
-91 -81 0
-91 -82 0
-91 -80 0
-91 -71 0
-91 -73 0
-92 -93 0
-92 -94 0
-92 -91 0
-92 -90 0
-92 -82 0
-92 -83 0
-92 -81 0
-92 -72 0
-92 -74 0
-92 -70 0
-93 -94 0
-93 -95 0
-93 -92 0
-93 -91 0
-93 -83 0
-93 -84 0
-93 -82 0
-93 -73 0
-93 -75 0
-93 -71 0
-94 -95 0
-94 -96 0
-94 -93 0
-94 -92 0
-94 -84 0
-94 -85 0
-94 -83 0
-94 -74 0
-94 -76 0
-94 -72 0
-95 -96 0
-95 -97 0
-95 -94 0
-95 -93 0
-95 -85 0
-95 -86 0
-95 -84 0
-95 -75 0
-95 -77 0
-95 -73 0
-96 -97 0
-96 -98 0
-96 -95 0
-96 -94 0
-96 -86 0
-96 -87 0
-96 -85 0
-96 -76 0
-96 -78 0
-96 -74 0
-97 -98 0
-97 -99 0
-97 -96 0
-97 -95 0
-97 -87 0
-97 -88 0
-97 -86 0
-97 -77 0
-97 -79 0
-97 -75 0
-98 -99 0
-98 -97 0
-98 -96 0
-98 -88 0
-98 -89 0
-98 -87 0
-98 -78 0
-98 -76 0
-99 -98 0
-99 -97 0
-99 -89 0
-99 -88 0
-99 -79 0
-99 -77 0
